data/solutions/planning/wellformed/hard/weighting/wellformed_hard_instance22_gurobi.sol
Elapsed time: 58.88
Nodes explored: 60849
Nodes left: 5
Relative gap: 0.0
Upper bound: 244566309.0
Lower bound: 244566309
C[0]=239068.0
C[1]=239068.0
C[2]=239067.0
C[3]=239067.0
C[4]=239067.0
C[5]=239067.0
C[6]=239067.0
C[7]=239067.0
C[8]=239067.0
C[9]=239067.0
y[0]=4
y[1]=0
y[2]=2
y[3]=2
y[4]=0
y[5]=0
y[6]=4
y[7]=8
y[8]=2
y[9]=0
y[10]=1
y[11]=6
y[12]=0
y[13]=8
y[14]=0
y[15]=7
y[16]=1
y[17]=4
y[18]=2
y[19]=8
y[20]=6
y[21]=9
y[22]=5
y[23]=7
y[24]=8
y[25]=6
y[26]=5
y[27]=0
y[28]=1
y[29]=9
y[30]=5
y[31]=5
y[32]=1
y[33]=3
y[34]=4
y[35]=2
y[36]=1
y[37]=8
y[38]=7
y[39]=6
y[40]=0
y[41]=8
y[42]=0
y[43]=2
y[44]=0
y[45]=7
y[46]=7
y[47]=1
y[48]=2
y[49]=7
y[50]=5
y[51]=7
y[52]=1
y[53]=2
y[54]=2
y[55]=2
y[56]=1
y[57]=1
y[58]=4
y[59]=6
y[60]=2
y[61]=1
y[62]=4
y[63]=9
y[64]=7
y[65]=6
y[66]=1
y[67]=8
y[68]=0
y[69]=6
y[70]=3
y[71]=3
y[72]=4
y[73]=1
y[74]=6
y[75]=1
y[76]=3
y[77]=7
y[78]=9
y[79]=9
y[80]=7
y[81]=9
y[82]=6
y[83]=3
y[84]=8
y[85]=7
y[86]=8
y[87]=9
y[88]=8
y[89]=5
y[90]=8
y[91]=7
y[92]=1
y[93]=8
y[94]=6
y[95]=0
y[96]=5
y[97]=6
y[98]=7
y[99]=6
y[100]=1
y[101]=8
y[102]=1
y[103]=3
y[104]=6
y[105]=0
y[106]=4
y[107]=3
y[108]=3
y[109]=9
y[110]=4
y[111]=6
y[112]=8
y[113]=7
y[114]=7
y[115]=3
y[116]=6
y[117]=4
y[118]=8
y[119]=1
y[120]=7
y[121]=1
y[122]=8
y[123]=4
y[124]=7
y[125]=4
y[126]=7
y[127]=1
y[128]=1
y[129]=8
y[130]=3
y[131]=2
y[132]=6
y[133]=5
y[134]=5
y[135]=8
y[136]=5
y[137]=7
y[138]=7
y[139]=6
y[140]=7
y[141]=2
y[142]=1
y[143]=6
y[144]=3
y[145]=1
y[146]=7
y[147]=1
y[148]=3
y[149]=1
y[150]=6
y[151]=9
y[152]=5
y[153]=2
y[154]=7
y[155]=3
y[156]=8
y[157]=8
y[158]=7
y[159]=5
y[160]=6
y[161]=4
y[162]=3
y[163]=7
y[164]=1
y[165]=5
y[166]=5
y[167]=5
y[168]=7
y[169]=8
y[170]=4
y[171]=0
y[172]=1
y[173]=1
y[174]=9
y[175]=7
y[176]=6
y[177]=6
y[178]=9
y[179]=8
y[180]=5
y[181]=4
y[182]=2
y[183]=0
y[184]=6
y[185]=9
y[186]=9
y[187]=3
y[188]=4
y[189]=1
y[190]=5
y[191]=2
y[192]=4
y[193]=7
y[194]=1
y[195]=8
y[196]=8
y[197]=9
y[198]=3
y[199]=6
y[200]=5
y[201]=3
y[202]=7
y[203]=4
y[204]=7
y[205]=6
y[206]=2
y[207]=9
y[208]=1
y[209]=9
y[210]=5
y[211]=2
y[212]=4
y[213]=9
y[214]=2
y[215]=0
y[216]=2
y[217]=1
y[218]=7
y[219]=2
y[220]=0
y[221]=2
y[222]=5
y[223]=3
y[224]=7
y[225]=4
y[226]=8
y[227]=9
y[228]=6
y[229]=4
y[230]=7
y[231]=0
y[232]=5
y[233]=7
y[234]=4
y[235]=9
y[236]=3
y[237]=2
y[238]=2
y[239]=9
y[240]=3
y[241]=3
y[242]=1
y[243]=4
y[244]=7
y[245]=9
y[246]=5
y[247]=3
y[248]=7
y[249]=9
y[250]=9
y[251]=7
y[252]=5
y[253]=9
y[254]=4
y[255]=9
y[256]=1
y[257]=1
y[258]=7
y[259]=9
y[260]=2
y[261]=2
y[262]=6
y[263]=1
y[264]=1
y[265]=3
y[266]=3
y[267]=4
y[268]=8
y[269]=8
y[270]=2
y[271]=5
y[272]=9
y[273]=6
y[274]=6
y[275]=8
y[276]=7
y[277]=1
y[278]=7
y[279]=9
y[280]=5
y[281]=6
y[282]=2
y[283]=4
y[284]=3
y[285]=3
y[286]=2
y[287]=6
y[288]=4
y[289]=5
y[290]=8
y[291]=4
y[292]=3
y[293]=5
y[294]=7
y[295]=8
y[296]=1
y[297]=5
y[298]=8
y[299]=6
y[300]=8
y[301]=4
y[302]=2
y[303]=7
y[304]=1
y[305]=8
y[306]=1
y[307]=9
y[308]=8
y[309]=5
y[310]=8
y[311]=9
y[312]=1
y[313]=3
y[314]=2
y[315]=4
y[316]=8
y[317]=5
y[318]=4
y[319]=0
y[320]=1
y[321]=7
y[322]=8
y[323]=0
y[324]=6
y[325]=1
y[326]=8
y[327]=3
y[328]=9
y[329]=7
y[330]=7
y[331]=3
y[332]=2
y[333]=4
y[334]=7
y[335]=4
y[336]=6
y[337]=9
y[338]=7
y[339]=5
y[340]=8
y[341]=5
y[342]=0
y[343]=3
y[344]=8
y[345]=5
y[346]=8
y[347]=7
y[348]=9
y[349]=8
y[350]=1
y[351]=6
y[352]=2
y[353]=8
y[354]=5
y[355]=4
y[356]=7
y[357]=7
y[358]=8
y[359]=5
y[360]=3
y[361]=9
y[362]=4
y[363]=7
y[364]=1
y[365]=6
y[366]=6
y[367]=1
y[368]=8
y[369]=6
y[370]=7
y[371]=4
y[372]=7
y[373]=7
y[374]=4
y[375]=0
y[376]=7
y[377]=3
y[378]=6
y[379]=8
y[380]=7
y[381]=7
y[382]=0
y[383]=8
y[384]=4
y[385]=0
y[386]=9
y[387]=1
y[388]=1
y[389]=0
y[390]=0
y[391]=3
y[392]=0
y[393]=7
y[394]=2
y[395]=3
y[396]=0
y[397]=0
y[398]=8
y[399]=4
y[400]=0
y[401]=8
y[402]=0
y[403]=1
y[404]=8
y[405]=0
y[406]=5
y[407]=7
y[408]=0
y[409]=5
y[410]=0
y[411]=6
y[412]=0
y[413]=3
y[414]=1
y[415]=2
y[416]=5
y[417]=5
y[418]=7
y[419]=2
y[420]=3
y[421]=1
y[422]=0
y[423]=8
y[424]=0
y[425]=7
y[426]=0
y[427]=0
y[428]=7
y[429]=9
y[430]=0
y[431]=0
y[432]=0
y[433]=8
y[434]=8
y[435]=8
y[436]=1
y[437]=6
y[438]=2
y[439]=9
y[440]=8
y[441]=3
y[442]=0
y[443]=1
y[444]=7
y[445]=5
y[446]=5
y[447]=4
y[448]=2
y[449]=1
y[450]=5
y[451]=4
y[452]=7
y[453]=7
y[454]=0
y[455]=7
y[456]=5
y[457]=8
y[458]=5
y[459]=3
y[460]=9
y[461]=1
y[462]=4
y[463]=5
y[464]=2
y[465]=4
y[466]=7
y[467]=4
y[468]=1
y[469]=4
y[470]=5
y[471]=2
y[472]=8
y[473]=5
y[474]=2
y[475]=7
y[476]=6
y[477]=2
y[478]=4
y[479]=6
y[480]=8
y[481]=6
y[482]=8
y[483]=5
y[484]=8
y[485]=8
y[486]=1
y[487]=1
y[488]=3
y[489]=8
y[490]=7
y[491]=5
y[492]=3
y[493]=2
y[494]=5
y[495]=7
y[496]=7
y[497]=2
y[498]=5
y[499]=7
