data/solutions/planning/wellformed/hard/weighting/wellformed_hard_instance22_gurobi.log

Gurobi 6.5.2 (linux64) logging started Sat Mar  3 20:16:02 2018

Changed value of parameter LogFile to data/solutions/planning/wellformed/hard/weighting/wellformed_hard_instance22_gurobi.log
   Prev: gurobi.log  Default: 
Changed value of parameter Threads to 1
   Prev: 0  Min: 0  Max: 1024  Default: 0
Optimize a model with 520 rows, 5011 columns and 10029 nonzeros
Coefficient statistics:
  Matrix range    [1e+00, 1e+04]
  Objective range [1e+00, 5e+02]
  Bounds range    [1e+00, 1e+00]
  RHS range       [1e+00, 1e+00]
Presolve removed 3 rows and 3 columns
Presolve time: 0.02s
Presolved: 517 rows, 5008 columns, 10024 nonzeros
Variable types: 0 continuous, 5008 integer (5000 binary)
Found heuristic solution: objective 1.224024e+09

Root relaxation: objective 2.445657e+08, 678 iterations, 0.01 seconds

    Nodes    |    Current Node    |     Objective Bounds      |     Work
 Expl Unexpl |  Obj  Depth IntInf | Incumbent    BestBd   Gap | It/Node Time

     0     0 2.4457e+08    0   20 1.2240e+09 2.4457e+08  80.0%     -    0s
H    0     0                    2.539518e+08 2.4457e+08  3.70%     -    0s
H    0     0                    2.478370e+08 2.4457e+08  1.32%     -    0s
     0     0 2.4457e+08    0   30 2.4784e+08 2.4457e+08  1.32%     -    0s
     0     0 2.4457e+08    0   32 2.4784e+08 2.4457e+08  1.32%     -    0s
     0     0 2.4457e+08    0   34 2.4784e+08 2.4457e+08  1.32%     -    0s
     0     0 2.4457e+08    0   29 2.4784e+08 2.4457e+08  1.32%     -    0s
     0     2 2.4457e+08    0   22 2.4784e+08 2.4457e+08  1.32%     -    0s
H   27    27                    2.474889e+08 2.4457e+08  1.18%  14.0    0s
H   95    95                    2.450718e+08 2.4457e+08  0.21%   5.2    0s
H  400   400                    2.450713e+08 2.4457e+08  0.21%   3.5    0s
H  573   573                    2.449889e+08 2.4457e+08  0.17%   3.4    1s
H  993   993                    2.449425e+08 2.4457e+08  0.15%   3.1    1s
  2228  1766 2.4457e+08  398   18 2.4494e+08 2.4457e+08  0.15%   6.8    5s
  5681  3621 2.4460e+08  613   13 2.4494e+08 2.4457e+08  0.15%   5.1   10s
  9152  6496 2.4457e+08  740   12 2.4494e+08 2.4457e+08  0.15%   5.2   15s
 12832 10083 2.4457e+08 1168   13 2.4494e+08 2.4457e+08  0.15%   5.6   20s
H13774  9557                    2.446016e+08 2.4457e+08  0.01%   5.6   21s
 18434 13833 2.4458e+08 1967   13 2.4460e+08 2.4457e+08  0.01%   5.6   25s
 25007 20070 2.4457e+08  878   11 2.4460e+08 2.4457e+08  0.01%   5.4   30s
 30749 25440 2.4457e+08 1211   14 2.4460e+08 2.4457e+08  0.01%   5.7   35s
 36743 30530 2.4457e+08 1360   13 2.4460e+08 2.4457e+08  0.01%   5.7   40s
 43011 35376 2.4457e+08 1326   11 2.4460e+08 2.4457e+08  0.01%   5.5   45s
 50079 38237 2.4457e+08 1355    7 2.4460e+08 2.4457e+08  0.01%   5.2   50s
 56356 39764 2.4457e+08 1382   10 2.4460e+08 2.4457e+08  0.01%   5.0   55s
*60849     5            1378    2.445663e+08 2.4457e+08  0.00%   4.9   58s

Cutting planes:
  Gomory: 3
  MIR: 1
  Flow cover: 4

Explored 60850 nodes (297708 simplex iterations) in 58.77 seconds
Thread count was 1 (of 8 available processors)

Optimal solution found (tolerance 1.00e-04)
Best objective 2.445663090000e+08, best bound 2.445663090000e+08, gap 0.0%
